-99 -99 -99 -99 -99 -99 -99 000 -99 -99 -99 -99 000 000 000 -99 -99 000 000 000 003 007 008 024 013 014 012 022 019 026 042
000 000 -99 -99 -99 -99 000 000 000 -99 -99 -99 000 000 000 -99 -99 -99 000 000 006 020 032 044 024 024 040 047 019 043 061
000 000 000 -99 000 000 000 000 000 000 000 -99 -99 -99 000 -99 -99 -99 000 000 004 021 031 056 031 028 050 116 089 081 058
000 -99 000 000 000 000 000 000 000 000 000 000 -99 -99 000 000 -99 -99 000 000 001 007 022 053 109 029 060 152 152 109 179
000 000 000 000 000 000 000 000 000 000 000 000 000 000 -99 000 000 -99 -99 000 000 002 018 028 065 062 072 116 340 320 464
000 -99 000 000 000 000 000 000 000 000 000 000 000 000 -99 000 000 000 -99 -99 000 000 001 010 038 085 096 126 244 277 294
000 000 000 000 000 000 000 000 000 000 000 001 000 000 000 000 000 000 -99 000 000 000 000 004 016 037 048 092 109 175 333
000 000 000 000 000 000 000 000 000 000 000 001 000 000 000 000 000 000 -99 000 000 000 000 000 005 010 030 037 100 126 162
000 000 000 000 000 000 000 000 000 000 000 000 001 000 000 000 000 000 000 000 000 000 000 000 004 009 041 032 015 041 083
000 000 000 000 000 000 000 000 000 000 001 000 001 001 000 000 000 000 000 000 000 000 000 001 002 011 025 071 022 013 025
000 000 000 000 000 000 000 000 000 000 000 001 000 002 006 000 000 000 000 000 000 000 001 001 006 035 058 105 021 013 013
000 000 000 000 000 000 000 000 000 000 000 000 000 002 003 001 001 001 000 000 000 000 001 001 005 033 044 031 019 008 010
000 000 000 000 000 000 000 001 001 001 000 000 001 003 004 002 001 001 000 000 001 001 002 001 002 008 014 019 005 003 008
000 000 000 000 000 000 000 001 003 002 002 001 001 006 003 004 003 002 001 002 003 003 003 002 001 001 001 001 001 002 005
000 000 000 000 000 000 000 001 008 006 007 003 002 005 008 006 006 006 004 008 007 005 003 003 001 001 001 000 001 016 021
000 000 000 000 000 000 005 018 016 017 013 007 002 005 017 011 011 010 015 031 026 017 011 004 001 001 000 000 005 031 048
000 000 000 000 000 001 011 042 041 015 016 016 012 013 030 021 017 025 056 051 044 021 022 005 002 002 000 001 003 044 054
000 000 000 000 000 001 003 017 064 022 022 028 039 043 039 025 021 044 075 089 078 048 023 006 003 002 000 001 016 047 054
000 000 000 000 000 001 002 004 024 019 031 027 053 058 041 026 022 048 080 077 046 056 024 003 003 003 001 006 025 052 054
000 000 000 000 000 001 001 004 014 013 021 029 046 072 058 039 031 058 085 077 052 058 022 004 003 002 002 007 019 040 018
000 000 000 000 001 002 003 007 008 016 039 034 064 092 066 047 044 046 058 057 042 050 017 005 003 002 002 007 019 040 018
000 000 000 000 001 002 005 009 016 033 051 066 094 098 051 042 033 024 034 022 027 039 013 005 004 001 002 007 014 021 010
000 000 000 000 000 001 003 010 018 031 057 069 098 098 043 039 015 012 014 012 021 026 009 005 004 001 002 006 007 006 003
000 000 000 000 000 000 003 008 013 025 064 075 089 054 056 046 007 005 004 006 010 008 007 006 003 001 -99 005 004 002 002
-99 -99 000 000 000 001 001 005 006 013 040 046 075 026 013 035 004 001 001 002 002 002 004 005 003 -99 -99 005 003 001 001
-99 -99 -99 000 000 000 002 002 003 008 016 030 033 024 013 015 002 000 000 000 000 000 002 003 002 -99 -99 -99 002 001 000
000 -99 -99 000 000 000 000 001 001 002 002 006 015 020 006 001 000 000 000 000 000 000 000 001 -99 -99 -99 -99 002 001 000
000 -99 -99 000 000 000 000 000 000 000 001 001 002 006 002 000 000 000 000 000 000 000 -99 000 000 -99 -99 -99 -99 -99 000
000 000 -99 -99 -99 000 000 000 000 000 000 000 001 001 000 000 000 000 000 -99 -99 000 -99 -99 -99 -99 -99 -99 -99 -99 -99
-99 -99 -99 -99 -99 000 000 000 000 000 000 000 000 000 000 000 000 000 000 -99 -99 000 -99 -99 000 000 -99 -99 -99 -99 -99
000 000 000 -99 000 000 000 000 000 -99 -99 -99 000 000 000 000 000 000 000 000 000 000 -99 000 000 000 000 -99 -99 -99 -99
000 000 000 -99 000 000 000 000 000 -99 -99 -99 -99 -99 -99 -99 000 000 000 -99 000 000 000 000 000 000 000 000 000 -99 -99
-99 000 000 -99 000 000 000 000 000 -99 -99 -99 -99 000 -99 000 000 000 000 -99 000 000 000 000 000 000 000 000 000 -99 -99
-99 -99 -99 -99 000 000 000 000 -99 -99 -99 -99 -99 000 000 000 000 000 000 -99 -99 000 000 000 000 000 000 000 000 000 -99
-99 -99 -99 000 000 000 000 000 -99 -99 -99 -99 -99 000 000 000 000 000 000 -99 001 000 000 000 000 000 000 000 000 000 -99
-99 -99 -99 -99 000 -99 -99 000 000 -99 -99 -99 -99 -99 000 000 000 000 000 -99 -99 000 000 -99 000 000 000 000 -99 -99 -99
000 000 -99 000 000 -99 -99 000 000 000 -99 -99 -99 -99 000 000 000 000 000 -99 -99 000 -99 000 000 000 000 000 -99 -99 -99
000 000 -99 000 000 -99 -99 000 000 -99 -99 -99 -99 -99 -99 -99 000 000 000 -99 000 000 -99 -99 -99 000 000 -99 -99 -99 -99
000 000 -99 -99 -99 -99 -99 000 -99 -99 -99 -99 -99 000 000 000 000 000 -99 -99 000 000 000 000 000 -99 -99 -99 -99 -99 -99
000 -99 -99 -99 -99 -99 -99 -99 -99 -99 -99 -99 000 000 -99 -99 000 -99 -99 -99 000 000 -99 000 -99 -99 -99 -99 -99 000 -99
000 000 -99 -99 -99 -99 -99 -99 -99 -99 -99 000 000 000 -99 -99 -99 -99 -99 000 000 000 000 001 000 -99 -99 -99 -99 000 000
000 000 -99 -99 -99 -99 -99 -99 -99 -99 -99 -99 000 000 -99 -99 -99 -99 -99 000 000 -99 000 001 000 -99 -99 -99 000 000 000
-99 -99 -99 -99 -99 -99 -99 -99 -99 -99 -99 000 000 -99 -99 000 000 -99 -99 000 000 000 000 -99 000 000 -99 -99 000 002 002
-99 -99 -99 -99 -99 -99 -99 -99 -99 -99 -99 -99 -99 -99 000 000 000 -99 000 000 000 000 000 000 000 000 -99 000 001 001 002
-99 -99 -99 -99 -99 -99 -99 -99 -99 -99 -99 -99 -99 -99 000 000 -99 -99 000 000 000 000 000 000 000 000 000 000 001 -99 -99
-99 -99 -99 -99 -99 -99 -99 -99 -99 -99 -99 -99 -99 -99 000 000 -99 -99 -99 000 000 000 000 000 000 000 000 000 -99 -99 000
-99 -99 -99 -99 -99 -99 -99 -99 -99 -99 -99 -99 -99 -99 -99 -99 -99 -99 000 000 000 000 000 000 000 000 000 -99 -99 -99 -99
-99 -99 -99 -99 -99 -99 -99 -99 -99 -99 -99 -99 -99 -99 -99 -99 -99 000 -99 000 000 000 000 000 000 000 -99 -99 000 000 -99
-99 -99 -99 -99 -99 -99 -99 -99 -99 -99 -99 -99 -99 -99 -99 -99 -99 -99 -99 000 000 000 000 000 000 000 -99 000 000 -99 -99
-99 -99 -99 -99 -99 -99 -99 -99 -99 -99 -99 -99 -99 -99 -99 -99 -99 -99 -99 000 000 000 000 000 000 -99 -99 000 000 -99 -99
-99 -99 -99 -99 -99 -99 -99 -99 -99 -99 -99 -99 -99 -99 -99 -99 -99 000 000 000 000 000 -99 -99 -99 000 000 -99 000 -99 -99
-99 -99 -99 -99 -99 -99 -99 -99 -99 -99 -99 -99 -99 -99 -99 -99 000 000 000 000 -99 -99 -99 -99 -99 000 -99 -99 -99 -99 -99
-99 -99 -99 -99 -99 -99 -99 -99 -99 -99 -99 -99 -99 -99 -99 -99 000 000 000 -99 -99 -99 -99 -99 -99 -99 -99 -99 -99 -99 -99
-99 -99 -99 -99 -99 -99 -99 -99 -99 -99 -99 -99 -99 -99 -99 000 000 000 000 -99 -99 -99 -99 -99 -99 -99 -99 -99 -99 -99 -99
-99 -99 -99 -99 -99 -99 -99 -99 -99 -99 -99 -99 -99 -99 -99 -99 000 000 -99 -99 -99 -99 -99 -99 -99 -99 -99 -99 -99 -99 -99
